ALGO = fast
EDIFF = 2e-06
EDIFFG = -0.03
ENCUT = 400
GGA = pe
IBRION = 2
ISIF = 3
ISMEAR = 0
ISPIN = 2
LASPH = .TRUE.
LCHARG = .FALSE.
LREAL = .FALSE.
LVHAR = .TRUE.
LWAVE = .FALSE.
NEDOS = 100
NELM = 200
NELMIN = 4
NSW = 60
NWRITE = 1
PREC = normal
SIGMA = 0.05
