# No comment
0
Gamma
            6             6             6
  0.000000000   0.000000000   0.000000000
