# No comment
0
Gamma
            7             7             7
  0.000000000   0.000000000   0.000000000
