ALGO = Fast
EDIFF = 0.0001
EDIFFG = -0.01
ENCUT = 520.0
IBRION = 2
ISIF = 3
ISMEAR = -5
ISPIN = 2
ISYM = 2
IVDW = 11
LASPH = True
LMAXMIX = 4
LORBIT = 11
LREAL = Auto
LWAVE = False
MAGMOM = 2*0.6
NELM = 100
NSW = 1500
PREC = Accurate
SIGMA = 0.05
