ALGO = fast
EDIFF = 2e-06
ENCUT = 250
GGA = ps
ISMEAR = 0
ISPIN = 2
LASPH = .TRUE.
LCHARG = .FALSE.
LREAL = .FALSE.
LVHAR = .TRUE.
LWAVE = .FALSE.
NEDOS = 100
NELM = 200
NELMIN = 4
NWRITE = 1
PREC = normal
SIGMA = 0.05
