# No comment
0
Gamma
            5             5             5
  0.000000000   0.000000000   0.000000000
